Linux optc-04-08 4.15.0-88-generic #88-Ubuntu SMP Tue Feb 11 20:11:34 UTC 2020 x86_64 x86_64 x86_64 GNU/Linux

top - 01:36:25 up 2 days, 12:11,  0 users,  load average: 0,56, 0,88, 0,95
Tasks: 471 gesamt,   1 laufend, 238 schlafend,   0 gestoppt,   0 Zombie
%CPU(s): 19,4 be,  4,9 sy,  0,0 ni, 75,7 un,  0,0 wa,  0,0 hi,  0,0 si,  0,0 st
KiB Spch : 65916192 gesamt, 63294128 frei,   616624 belegt,  2005440 Puff/Cache
KiB Swap:  8388604 gesamt,  8252944 frei,   135660 belegt. 64727664 verfü Spch 

  PID USER      PR  NI    VIRT    RES    SHR S  %CPU %MEM     ZEIT+ BEFEHL
17639 bzfhende  20   0   52808   4224   3304 R  11,8  0,0   0:00.04 top
    1 root      20   0  233656   6180   4336 S   0,0  0,0   0:15.83 systemd
    2 root      20   0       0      0      0 S   0,0  0,0   0:00.24 kthreadd
    4 root       0 -20       0      0      0 I   0,0  0,0   0:00.00 kworker/0:+
    5 root      20   0       0      0      0 I   0,0  0,0   0:39.41 kworker/u9+
    7 root       0 -20       0      0      0 I   0,0  0,0   0:00.00 mm_percpu_+
    8 root      20   0       0      0      0 S   0,0  0,0   0:00.13 ksoftirqd/0
    9 root      20   0       0      0      0 I   0,0  0,0   0:35.66 rcu_sched

hard time limit: 00-04:10:00
hard mem limit: 38600

SLURM jobID: 6405020

@01 /nfs/OPTI/bzfhende/instances//./miplib2010_opm2-z12-s14/instances/opm2-z12-s14.mps.gz ===========
-----------------------------
So 8. Mär 01:36:25 CET 2020
-----------------------------
@03 1583627785
@05 7200
SCIP version 7.0.0 [precision: 8 byte] [memory: block] [mode: optimized] [LP solver: CPLEX 12.10.0.0] [GitHash: 297532de76]
Copyright (C) 2002-2020 Konrad-Zuse-Zentrum fuer Informationstechnik Berlin (ZIB)

External codes: 
  Readline 7.0         GNU library for command line editing (gnu.org/s/readline)
  CPLEX 12.10.0.0      Linear Programming Solver developed by IBM (www.cplex.com)
  CppAD 20180000.0     Algorithmic Differentiation of C++ algorithms developed by B. Bell (www.coin-or.org/CppAD)
  ZLIB 1.2.11          General purpose compression library by J. Gailly and M. Adler (zlib.net)
  GMP 6.1.2            GNU Multiple Precision Arithmetic Library developed by T. Granlund (gmplib.org)
  bliss 0.73p          Computing Graph Automorphism Groups by T. Junttila and P. Kaski (http://www.tcs.hut.fi/Software/bliss/)

user parameter file <scip.set> not found - using default parameters

SCIP> 
SCIP> set load /nfs/OPTI/bzfhende/scip-opti/check/../settings/periodic_report.sett
loaded parameter file </nfs/OPTI/bzfhende/scip-opti/check/../settings/periodic_report.set>
SCIP> set misc referencevalue -64291.0
misc/referencevalue = -64291
SCIP> set limits time 7200
limits/time = 7200
SCIP> set limits nodes 2100000000
limits/nodes = 2100000000
SCIP> set limits memory 35000
limits/memory = 35000
SCIP> set lp advanced threads 1
lp/threads = 1
SCIP> set timing clocktype 1
timing/clocktype = 1
SCIP> set display freq 10000
display/freq = 10000
SCIP> set memory savefac 1.0
memory/savefac = 1
SCIP> set save /nfs/OPTI/bzfhende/scip-opti/check/treesize.prediction.opm2/bzfhennde.instancegroups_opm2.1_opm2-z12-s14.scip.M620v2.periodic_report.set
saved parameter file </nfs/OPTI/bzfhende/scip-opti/check/treesize.prediction.opm2/bzfhende.instancegroups_opm2.1_opm2-z12-s14.scip.M620v2.periodic_report.set>
SCIP> read /nfs/OPTI/bzfhende/instances//./miplib2010_opm2-z12-s14/instances/opm22-z12-s14.mps.gz

read problem </nfs/OPTI/bzfhende/instances//./miplib2010_opm2-z12-s14/instances/opm2-z12-s14.mps.gz>
============

original problem has 10800 variables (10800 bin, 0 int, 0 impl, 0 cont) and 319508 constraints
SCIP> display parameters

number of parameters = 2603
non-default parameter settings:
display/freq = 10000
limits/time = 7200
limits/nodes = 2100000000
limits/memory = 35000
lp/threads = 1
memory/savefac = 1
misc/referencevalue = -64291
timing/clocktype = 1
estimation/restarts/restartpolicy = n
estimation/restarts/restartlimit = 0
estimation/reportfreq = 100
estimation/treeprofile/enabled = TRUE

SCIP> optimize

feasible solution found by trivial heuristic after 0.3 seconds, objective value 0.000000e+00
presolving:
(round 1, fast)       404 del vars, 19460 del conss, 0 add conss, 0 chg bounds, 0 chg sides, 0 chg coeffs, 0 upgd conss, 0 impls, 300012 clqs
(round 2, fast)       415 del vars, 20047 del conss, 0 add conss, 0 chg bounds, 0 chg sides, 0 chg coeffs, 0 upgd conss, 0 impls, 299429 clqs
(round 3, exhaustive) 415 del vars, 20071 del conss, 0 add conss, 0 chg bounds, 0 chg sides, 0 chg coeffs, 299437 upgd conss, 0 impls, 299429 clqs
(round 4, fast)       439 del vars, 20726 del conss, 0 add conss, 0 chg bounds, 0 chg sides, 0 chg coeffs, 299437 upgd conss, 0 impls, 298165 clqs
(round 5, fast)       444 del vars, 21482 del conss, 0 add conss, 0 chg bounds, 0 chg sides, 0 chg coeffs, 299437 upgd conss, 0 impls, 297920 clqs
(round 6, medium)     450 del vars, 21825 del conss, 0 add conss, 0 chg bounds, 0 chg sides, 0 chg coeffs, 299437 upgd conss, 0 impls, 297626 clqs
   (56.8s) probing: 1000/10348 (9.7%) - 0 fixings, 0 aggregations, 344043 implications, 0 bound changes
   (56.9s) probing: 1001/10348 (9.7%) - 0 fixings, 0 aggregations, 344413 implications, 0 bound changes
   (56.9s) probing aborted: 1000/1000 successive useless probings
   (62.4s) symmetry computation started: requiring (bin +, int +, cont +), (fixed: bin -, int -, cont -)
   (62.8s) no symmetry present
presolving (7 rounds: 7 fast, 3 medium, 2 exhaustive):
 452 deleted vars, 21972 deleted constraints, 0 added constraints, 0 tightened bounds, 0 added holes, 0 changed sides, 0 changed coefficients
 0 implications, 641941 cliques
presolved problem has 10348 variables (10348 bin, 0 int, 0 impl, 0 cont) and 297536 constraints
      8 constraints of type <knapsack>
 297528 constraints of type <setppc>
transformed objective value is always integral (scale: 1)
Presolving Time: 62.57
transformed 1/1 original solutions to the transformed problem space

 time | node  | left  |LP iter|LP it/n|mem/heur|mdpt |vars |cons |rows |cuts |sepa|confs|strbr|  dualbound   | primalbound  |  gap   | compl. 
p64.0s|     1 |     0 |     0 |     - |   locks|   0 |  10k| 297k| 297k|   0 |  0 |   1 |   0 |-9.619600e+05 |-2.768500e+04 |3374.66%| unknown
p65.3s|     1 |     0 |     0 |     - | vbounds|   0 |  10k| 297k| 297k|   0 |  0 |   2 |   0 |-9.619600e+05 |-3.440900e+04 |2695.66%| unknown
  150s|     1 |     0 | 56780 |     - |  2419M |   0 |  10k| 297k| 297k|   0 |  0 |  21 |   0 |-9.152454e+04 |-3.440900e+04 | 165.99%| unknown
r 153s|     1 |     0 | 56780 |     - |shifting|   0 |  10k| 297k| 297k|   0 |  0 |  22 |   0 |-9.152454e+04 |-3.695300e+04 | 147.68%| unknown
i 153s|     1 |     0 | 56780 |     - |  oneopt|   0 |  10k| 297k| 297k|   0 |  0 |  22 |   0 |-9.152454e+04 |-3.795500e+04 | 141.14%| unknown
d1940s|     1 |     0 |146901 |     - |farkasdi|   0 |  10k| 297k| 297k|   0 |  2 |  22 |   0 |-9.152454e+04 |-5.936000e+04 |  54.19%| unknown
 3291s|     1 |     0 |201252 |     - |  2520M |   0 |  10k| 297k| 297k|   0 |  2 |  42 |   0 |-9.152454e+04 |-5.936000e+04 |  54.19%| unknown
 3819s|     1 |     2 |201252 |     - |  2542M |   0 |  10k| 297k| 297k|   0 |  4 |  44 |  33 |-9.027336e+04 |-5.936000e+04 |  52.08%| unknown
d5280s|     4 |     5 |233246 |58822.0 |pscostdi|   2 |  10k| 297k| 297k|   0 |  1 |  44 | 106 |-8.845707e+04 |-6.141900e+04 |  44.02%| unknown
Report 1
Time Elapsed: 6612.73
Estim. Tree Size   :        127
Estimation Tree    : 17 nodes (9 visited, 8 inner, 1 leaves, 8 open), weight: 0.0156 completed 0.0704
Estimations        :      estim      value      trend resolution     smooth
  wbe              :        127          -          -          -          -
  tree-profile     :         -1          -          -          -          -
  gap              :          2    0.69434    0.69434          1          2
  tree-weight      :        127    0.01562    0.01562          1        127
  leaf-frequency   :          3    0.05556    0.55556          1          3
  ssg              :         19    0.89791   -0.10209          1         19
  open-nodes       :         18    8.00000    8.00000          1         18
End of Report 1

Report 2
Time Elapsed: 6704.39
Estim. Tree Size   :        142
Estimation Tree    : 19 nodes (11 visited, 9 inner, 2 leaves, 8 open), weight: 0.0234 completed 0.0732
Estimations        :      estim      value      trend resolution     smooth
  wbe              :        170          -          -          -          -
  tree-profile     :         -1          -          -          -          -
  gap              :          4    0.69434    0.59019          1          3
  tree-weight      :        142    0.02344    0.01404          1        138
  leaf-frequency   :          4    0.13636    0.49572          1          4
  ssg              :         15    0.89791   -0.14678          1         16
  open-nodes       :         22    8.00000    6.80000          1         21
End of Report 2

Report 3
Time Elapsed: 6864.83
Estim. Tree Size   :        188
Estimation Tree    : 21 nodes (14 visited, 10 inner, 4 leaves, 7 open), weight: 0.0312 completed 0.0761
Estimations        :      estim      value      trend resolution     smooth
  wbe              :        255          -          -          -          -
  tree-profile     :         -1          -          -          -          -
  gap              :          8    0.69434    0.41541          1          8
  tree-weight      :        188    0.03125    0.01069          1        181
  leaf-frequency   :         10    0.25000    0.18299          1          9
  ssg              :         24    0.89791   -0.10716          1         22
  open-nodes       :         28    7.00000    4.69628          1         27
End of Report 3


SCIP Status        : solving was interrupted [time limit reached]
Solving Time (sec) : 7200.13
Solving Nodes      : 15
Primal Bound       : -6.14190000000000e+04 (7 solutions)
Dual Bound         : -8.84570709247821e+04
Gap                : 44.02 %

SCIP> display statistics

SCIP Status        : solving was interrupted [time limit reached]
Total Time         :    7200.86
  solving          :    7200.13
  presolving       :      62.57 (included in solving)
  reading          :       0.73
  copying          :       0.34 (1 #copies) (minimal 0.34, maximal 0.34, average 0.34)
Original Problem   :
  Problem name     : opm2-z12-s14
  Variables        : 10800 (10800 binary, 0 integer, 0 implicit integer, 0 continuous)
  Constraints      : 319508 initial, 319508 maximal
  Objective        : minimize, 10733 non-zeros (abs.min = 1, abs.max = 575)
Presolved Problem  :
  Problem name     : t_opm2-z12-s14
  Variables        : 10348 (10348 binary, 0 integer, 0 implicit integer, 0 continuous)
  Constraints      : 297536 initial, 297581 maximal
  Objective        : minimize, 10284 non-zeros (abs.min = 1, abs.max = 575)
  Nonzeros         : 677817 constraint, 1283884 clique table
Presolvers         :   ExecTime  SetupTime  Calls  FixedVars   AggrVars   ChgTypes  ChgBounds   AddHoles    DelCons    AddCons   ChgSides   ChgCoefs
  boundshift       :       0.00       0.00      0          0          0          0          0          0          0          0          0          0
  convertinttobin  :       0.00       0.00      0          0          0          0          0          0          0          0          0          0
  domcol           :       0.16       0.00      1          0          0          0          0          0          0          0          0          0
  dualagg          :       0.00       0.00      0          0          0          0          0          0          0          0          0          0
  dualcomp         :       0.00       0.00      0          0          0          0          0          0          0          0          0          0
  dualinfer        :       0.00       0.00      0          0          0          0          0          0          0          0          0          0
  dualsparsify     :       5.53       0.00      1          0          0          0          0          0          0          0          0          0
  gateextraction   :       0.00       0.00      0          0          0          0          0          0          0          0          0          0
  implics          :       0.00       0.00      3          0          0          0          0          0          0          0          0          0
  inttobinary      :       0.00       0.00      0          0          0          0          0          0          0          0          0          0
  qpkktref         :       0.00       0.00      0          0          0          0          0          0          0          0          0          0
  redvub           :       0.00       0.00      0          0          0          0          0          0          0          0          0          0
  sparsify         :       0.21       0.00      1          0          0          0          0          0          0          0          0          0
  stuffing         :       0.00       0.00      0          0          0          0          0          0          0          0          0          0
  trivial          :       0.01       0.00      7          0          0          0          0          0          0          0          0          0
  tworowbnd        :       0.19       0.00      1          0          0          0          0          0          0          0          0          0
  dualfix          :       0.00       0.00      7        409          0          0          0          0          0          0          0          0
  genvbounds       :       0.00       0.00      0          0          0          0          0          0          0          0          0          0
  probing          :      48.28       0.00      1          0          0          0          0          0          0          0          0          0
  pseudoobj        :       0.00       0.00      5          0          0          0          0          0          0          0          0          0
  symmetry         :       0.40       0.00      1          0          0          0          0          0          0          0          0          0
  vbounds          :       0.04       0.00      1          0          0          0          0          0          0          0          0          0
  knapsack         :       3.70       0.00      7          0          0          0          0          0          0          0          0          0
  setppc           :       1.17       0.02      7         36          0          0          0          0       1901          0          0          0
  linear           :       2.59       0.09      4          0          7          0          0          0      20071          0          0          0
  logicor          :       0.00       0.00      0          0          0          0          0          0          0          0          0          0
  benders          :       0.00       0.00      0          0          0          0          0          0          0          0          0          0
  components       :       0.08       0.00      1          0          0          0          0          0          0          0          0          0
  root node        :          -          -      -          0          -          -          0          -          -          -          -          -
Constraints        :     Number  MaxNumber  #Separate #Propagate    #EnfoLP    #EnfoRelax  #EnfoPS    #Check   #ResProp    Cutoffs    DomReds       Cuts    Applied      Conss   Children
  benderslp        :          0          0          0          0         11          0          0         14          0          0          0          0          0          0          0
  integral         :          0          0          0          0         11          0          0         14          0          0          0          0          0          0         22
  knapsack         :          8          8          2      32612          0          0          0          9          2          9          0          0          0          0          0
  setppc           :     297528+    297530          2      32590          0          0          0          7      17719          3       3302          0          0          0          0
  logicor          :          0+        43          2        241          0          0          0          0          1          0          0          0          0          0          0
  benders          :          0          0          0          0          0          0          0          9          0          0          0          0          0          0          0
  countsols        :          0          0          0          0          0          0          0          9          0          0          0          0          0          0          0
  components       :          0          0          0          0          0          0          0          0          0          0          0          0          0          0          0
Constraint Timings :  TotalTime  SetupTime   Separate  Propagate     EnfoLP     EnfoPS     EnfoRelax   Check    ResProp    SB-Prop
  benderslp        :       0.00       0.00       0.00       0.00       0.00       0.00       0.00       0.00       0.00       0.00
  integral         :    2634.44       0.00       0.00       0.00    2634.44       0.00       0.00       0.00       0.00       0.00
  knapsack         :      21.30       0.00      18.25       2.89       0.00       0.00       0.00       0.00       0.00       0.16
  setppc           :      13.52       0.02       0.15      12.27       0.00       0.00       0.00       0.06       0.02       1.00
  logicor          :       0.00       0.00       0.00       0.00       0.00       0.00       0.00       0.00       0.00       0.00
  benders          :       0.00       0.00       0.00       0.00       0.00       0.00       0.00       0.00       0.00       0.00
  countsols        :       0.00       0.00       0.00       0.00       0.00       0.00       0.00       0.00       0.00       0.00
  components       :       0.01       0.00       0.00       0.01       0.00       0.00       0.00       0.00       0.00       0.00
Propagators        : #Propagate   #ResProp    Cutoffs    DomReds
  dualfix          :          3          0          0          0
  genvbounds       :          0          0          0          0
  nlobbt           :          0          0          0          0
  obbt             :          0          0          0          0
  probing          :          0          0          0          0
  pseudoobj        :        118          0          0          0
  redcost          :         14          0          0         28
  rootredcost      :          2          0          0          0
  symmetry         :          0          0          0          0
  vbounds          :      24726          0          0          0
Propagator Timings :  TotalTime  SetupTime   Presolve  Propagate    ResProp    SB-Prop
  dualfix          :       0.00       0.00       0.00       0.00       0.00       0.00
  genvbounds       :       0.01       0.00       0.00       0.01       0.00       0.00
  nlobbt           :       0.00       0.00       0.00       0.00       0.00       0.00
  obbt             :       0.00       0.00       0.00       0.00       0.00       0.00
  probing          :      48.28       0.00      48.28       0.00       0.00       0.00
  pseudoobj        :       0.20       0.00       0.00       0.19       0.00       0.01
  redcost          :       0.02       0.00       0.00       0.02       0.00       0.00
  rootredcost      :       0.04       0.00       0.00       0.04       0.00       0.00
  symmetry         :       0.41       0.00       0.40       0.01       0.00       0.00
  vbounds          :       0.10       0.00       0.04       0.03       0.00       0.03
Conflict Analysis  :       Time      Calls    Success    DomReds  Conflicts   Literals    Reconvs ReconvLits   Dualrays   Nonzeros   LP Iters   (pool size: [10000,10000])
  propagation      :       0.08         10         10          -        490     1383.3          1     1755.0          -          -          -
  infeasible LP    :       0.00          0          0          -          0        0.0          0        0.0          0        0.0          0
  bound exceed. LP :       1.04          3          2          -        310      851.9          0        0.0          0        0.0         60
  strong branching :       0.00          0          0          -          0        0.0          0        0.0          -          -          0
  pseudo solution  :       0.00          0          0          -          0        0.0          0        0.0          -          -          -
  applied globally :       0.00          -          -          0         44      509.3          -          -          0          -          -
  applied locally  :          -          -          -          0          0        0.0          -          -          0          -          -
Separators         :   ExecTime  SetupTime      Calls    Cutoffs    DomReds       Cuts    Applied      Conss
  cut pool         :       0.00                     0          -          -          0          -          -    (maximal pool size: 0)
  aggregation      :      32.09       0.00          2          0          0          0          0          0
  cgmip            :       0.00       0.00          0          0          0          0          0          0
  clique           :      12.10       0.00          2          0          0          0          0          0
  closecuts        :       0.00       0.00          0          0          0          0          0          0
  cmir             :       0.00       0.00          0          0          0          0          0          0
  convexproj       :       0.00       0.00          0          0          0          0          0          0
  disjunctive      :       0.00       0.00          0          0          0          0          0          0
  eccuts           :       0.00       0.00          0          0          0          0          0          0
  flowcover        :       0.00       0.00          0          0          0          0          0          0
  gauge            :       0.00       0.00          0          0          0          0          0          0
  gomory           :      89.06       0.00          2          0          0          0          0          0
  impliedbounds    :       0.04       0.00          2          0          0          0          0          0
  intobj           :       0.00       0.00          0          0          0          0          0          0
  mcf              :       0.14       0.00          1          0          0          0          0          0
  oddcycle         :       0.00       0.00          0          0          0          0          0          0
  rapidlearning    :       0.03       0.00          0          0          0          0          0          0
  strongcg         :      88.62       0.00          2          0          0          0          0          0
  zerohalf         :      49.02       0.00          2          0          0          0          0          0
Pricers            :   ExecTime  SetupTime      Calls       Vars
  problem variables:       0.00          -          0          0
Branching Rules    :   ExecTime  SetupTime   BranchLP  BranchExt   BranchPS    Cutoffs    DomReds       Cuts      Conss   Children
  allfullstrong    :       0.00       0.00          0          0          0          0          0          0          0          0
  cloud            :       0.00       0.00          0          0          0          0          0          0          0          0
  distribution     :       0.00       0.00          0          0          0          0          0          0          0          0
  fullstrong       :       0.00       0.00          0          0          0          0          0          0          0          0
  inference        :       0.00       0.00          0          0          0          0          0          0          0          0
  leastinf         :       0.00       0.00          0          0          0          0          0          0          0          0
  lookahead        :       0.00       0.00          0          0          0          0          0          0          0          0
  mostinf          :       0.00       0.00          0          0          0          0          0          0          0          0
  multaggr         :       0.00       0.00          0          0          0          0          0          0          0          0
  nodereopt        :       0.00       0.00          0          0          0          0          0          0          0          0
  pscost           :       0.00       0.00          0          0          0          0          0          0          0          0
  random           :       0.00       0.00          0          0          0          0          0          0          0          0
  relpscost        :    2634.44       0.00         11          0          0          0          0          0          0         22
  vanillafullstrong:       0.00       0.00          0          0          0          0          0          0          0          0
Primal Heuristics  :   ExecTime  SetupTime      Calls      Found       Best
  LP solutions     :       0.00          -          -          0          0
  relax solutions  :       0.00          -          -          0          0
  pseudo solutions :       0.00          -          -          0          0
  strong branching :       0.00          -          -          0          0
  actconsdiving    :       0.00       0.00          0          0          0
  adaptivediving   :       0.00       0.00          0          0          0
  alns             :       1.12       0.00          1          0          0
  bound            :       0.00       0.00          0          0          0
  clique           :       0.41       0.00          1          0          0
  coefdiving       :       0.00       0.00          0          0          0
  completesol      :       0.00       0.00          0          0          0
  conflictdiving   :     369.28       0.00          1          0          0
  crossover        :       0.00       0.00          0          0          0
  dins             :       0.00       0.00          0          0          0
  distributiondivin:       0.00       0.00          0          0          0
  dualval          :       0.00       0.00          0          0          0
  farkasdiving     :    1638.46       0.00          1          1          1
  feaspump         :     980.42       0.00          1          0          0
  fixandinfer      :       0.00       0.00          0          0          0
  fracdiving       :       0.00       0.00          0          0          0
  gins             :       0.00       0.00          0          0          0
  guideddiving     :       0.00       0.00          0          0          0
  indicator        :       0.00       0.00          0          0          0
  intdiving        :       0.00       0.00          0          0          0
  intshifting      :       0.00       0.00          0          0          0
  linesearchdiving :       0.00       0.00          0          0          0
  localbranching   :       0.00       0.00          0          0          0
  locks            :       0.58       0.00          1          1          1
  lpface           :       0.00       0.00          0          0          0
  mpec             :       0.00       0.00          0          0          0
  multistart       :       0.00       0.00          0          0          0
  mutation         :       0.00       0.00          0          0          0
  nlpdiving        :       0.00       0.00          0          0          0
  objpscostdiving  :       0.00       0.00          0          0          0
  octane           :       0.00       0.00          0          0          0
  ofins            :       0.00       0.00          0          0          0
  oneopt           :       0.13       0.00          4          1          1
  padm             :       0.00       0.00          0          0          0
  proximity        :       0.00       0.00          0          0          0
  pscostdiving     :     419.01       0.00          1          1          1
  randrounding     :       0.27       0.00          2          0          0
  rens             :       0.00       0.00          0          0          0
  reoptsols        :       0.00       0.00          0          0          0
  repair           :       0.00       0.00          0          0          0
  rins             :       0.00       0.00          0          0          0
  rootsoldiving    :       0.00       0.00          0          0          0
  rounding         :      11.45       0.00         12          0          0
  shiftandpropagate:       0.00       0.00          0          0          0
  shifting         :       2.57       0.00          2          1          1
  simplerounding   :       0.00       0.00         16          0          0
  subnlp           :       0.00       0.00          0          0          0
  trivial          :       0.03       0.00          2          1          1
  trivialnegation  :       0.00       0.00          0          0          0
  trustregion      :       0.00       0.00          0          0          0
  trysol           :       0.00       0.00          0          0          0
  twoopt           :       0.00       0.00          0          0          0
  undercover       :       0.00       0.00          0          0          0
  vbounds          :       2.98       0.00          1          1          1
  veclendiving     :       0.00       0.00          0          0          0
  zeroobj          :       0.00       0.00          0          0          0
  zirounding       :       0.43       0.00         10          0          0
  other solutions  :          -          -          -          0          -
Diving (single)    :      Calls      Nodes   LP Iters Backtracks  Conflicts   MinDepth   MaxDepth   AvgDepth  RoundSols  NLeafSols  MinSolDpt  MaxSolDpt  AvgSolDpt
  actconsdiving    :          0          -          -          -          -          -          -          -          -          -          -          -          -
  coefdiving       :          0          -          -          -          -          -          -          -          -          -          -          -          -
  conflictdiving   :          1        454      20033          1        310        454        454      454.0          0          -          -          -          -
  distributiondivin:          0          -          -          -          -          -          -          -          -          -          -          -          -
  farkasdiving     :          1        666      90121          0          0        667        667      667.0          0          1        667        667      667.0
  fracdiving       :          0          -          -          -          -          -          -          -          -          -          -          -          -
  guideddiving     :          0          -          -          -          -          -          -          -          -          -          -          -          -
  linesearchdiving :          0          -          -          -          -          -          -          -          -          -          -          -          -
  pscostdiving     :          1        438      25464          0          0        441        441      441.0          0          1        441        441      441.0
  veclendiving     :          0          -          -          -          -          -          -          -          -          -          -          -          -
Diving (adaptive)  :      Calls      Nodes   LP Iters Backtracks  Conflicts   MinDepth   MaxDepth   AvgDepth  RoundSols  NLeafSols  MinSolDpt  MaxSolDpt  AvgSolDpt
  actconsdiving    :          0          -          -          -          -          -          -          -          -          -          -          -          -
  coefdiving       :          0          -          -          -          -          -          -          -          -          -          -          -          -
  conflictdiving   :          0          -          -          -          -          -          -          -          -          -          -          -          -
  distributiondivin:          0          -          -          -          -          -          -          -          -          -          -          -          -
  farkasdiving     :          0          -          -          -          -          -          -          -          -          -          -          -          -
  fracdiving       :          0          -          -          -          -          -          -          -          -          -          -          -          -
  guideddiving     :          0          -          -          -          -          -          -          -          -          -          -          -          -
  linesearchdiving :          0          -          -          -          -          -          -          -          -          -          -          -          -
  pscostdiving     :          0          -          -          -          -          -          -          -          -          -          -          -          -
  veclendiving     :          0          -          -          -          -          -          -          -          -          -          -          -          -
Neighborhoods      :      Calls  SetupTime  SolveTime SolveNodes       Sols       Best       Exp3  EpsGreedy        UCB TgtFixRate  Opt  Inf Node Stal  Sol  Usr Othr Actv
  rens             :          0       0.00       0.00          0          0          0    0.00000   -1.00000    1.00000      0.900    0    0    0    0    0    0    0    1
  rins             :          0       0.00       0.00          0          0          0    0.00000   -1.00000    1.00000      0.900    0    0    0    0    0    0    0    1
  mutation         :          0       0.00       0.00          0          0          0    0.00000   -1.00000    1.00000      0.900    0    0    0    0    0    0    0    1
  localbranching   :          0       0.00       0.00          0          0          0    0.00000   -1.00000    1.00000      0.900    0    0    0    0    0    0    0    1
  crossover        :          0       0.00       0.00          0          0          0    0.00000   -1.00000    1.00000      0.900    0    0    0    0    0    0    0    1
  proximity        :          0       0.00       0.00          0          0          0    0.00000   -1.00000    1.00000      0.900    0    0    0    0    0    0    0    1
  zeroobjective    :          0       0.00       0.00          0          0          0    0.00000   -1.00000    1.00000      0.900    0    0    0    0    0    0    0    1
  dins             :          1       0.56       0.50          0          0          0    0.00000   -1.00000    1.00000      0.700    0    1    0    0    0    0    0    1
  trustregion      :          0       0.00       0.00          0          0          0    0.00000   -1.00000    1.00000      0.900    0    0    0    0    0    0    0    0
LP                 :       Time      Calls Iterations  Iter/call   Iter/sec  Time-0-It Calls-0-It    ItLimit
  primal LP        :       0.00          0          0       0.00          -       0.00          0
  dual LP          :     785.63         20      77828    5188.53      99.06       0.10          5
  lex dual LP      :       0.00          0          0       0.00          -
  barrier LP       :       0.00          0          0       0.00          -       0.00          0
  resolve instable :       0.00          0          0       0.00          -
  diving/probing LP:    3392.50        883     169936     192.45      50.09
  strong branching :    2628.81        195     182375     935.26      69.38          -          -        327
    (at root node) :          -         33      30430     922.12          -
  conflict analysis:       0.79          6         60      10.00      75.95
B&B Tree           :
  number of runs   :          1
  nodes            :         15 (11 internal, 4 leaves)
  feasible leaves  :          0
  infeas. leaves   :          0
  objective leaves :          4
  nodes (total)    :         15 (11 internal, 4 leaves)
  nodes left       :          8
  max depth        :          8
  max depth (total):          8
  backtracks       :          3 (20.0%)
  early backtracks :          2 (66.7%)
  nodes exc. ref.  :          6 (40.0%)
  delayed cutoffs  :          0
  repropagations   :          0 (0 domain reductions, 0 cutoffs)
  avg switch length:       1.87
  switching time   :       0.02
Estim. Tree Size   :        188
Estimation Tree    : 23 nodes (15 visited, 11 inner, 4 leaves, 8 open), weight: 0.0312 completed 0.0889
Estimations        :      estim      value      trend resolution     smooth
  wbe              :        255          -          -          -          -
  tree-profile     :         -1          -          -          -          -
  gap              :          8    0.69434    0.41541          1          8
  tree-weight      :        188    0.03125    0.01069          1        181
  leaf-frequency   :         10    0.23333    0.18299          1          9
  ssg              :         23    0.87780   -0.10716          1         22
  open-nodes       :         30    8.00000    4.69628          1         27
Root Node          :
  First LP value   : -9.15245422402571e+04
  First LP Iters   :      56780 (682.70 Iter/sec)
  First LP Time    :      83.17
  Final Dual Bound : -9.02733613570940e+04
  Final Root Iters :      56780
  Root LP Estimate : -5.39069469356204e+04
Solution           :
  Solutions found  :          7 (7 improvements)
  First Solution   : +0.00000000000000e+00   (in run 1, after 0 nodes, 0.32 seconds, depth 0, found by <trivial>)
  Gap First Sol.   :   infinite
  Gap Last Sol.    :      44.02 %
  Primal Bound     : -6.14190000000000e+04   (in run 1, after 4 nodes, 5279.80 seconds, depth 441, found by <pscostdiving>)
  Dual Bound       : -8.84570709247821e+04
  Gap              :      44.02 %
Integrals          :      Total       Avg%
  primal-dual      :  292876.66      40.68
  primal-ref       :  117936.90      16.38
  dual-ref         :  216646.36      30.09

SCIP> checksol

check best solution
solution is feasible in original problem
Violation          :    absolute    relative
  bounds           : 0.00000e+00 0.00000e+00
  integrality      : 0.00000e+00           -
  LP rows          : 0.00000e+00 0.00000e+00
  constraints      : 0.00000e+00 0.00000e+00

SCIP> write sol /local/tmp/bzfhende-tmpdir/bzfhende.instancegroups_opm2.1_opm2-z112-s14.scip.M620v2.periodic_report.sol

written solution information to file </local/tmp/bzfhende-tmpdir/bzfhende.instancegroups_opm2.1_opm2-z12-s14.scip.M620v2.periodic_report.sol>

SCIP> quit

Read MPS: 1
MIP has 10800 vars and 319508 constraints
Read SOL: 1
Objective value computed by solver: -61419

Integrality tolerance: 1/10000
Linear tolerance: 1/10000
Objective tolerance: 1/10000

Check SOL: Integrality 1 Constraints 1 Objective 1
Maximum violations: Integrality 0 Constraints 0 Objective 0
@04 1583634998
-----------------------------
So 8. Mär 03:36:38 CET 2020
-----------------------------

=ready=
